c @top --> 19
c p0@v2 --> 18
c p0@v1 --> 17
c p0@v0 --> 16
c p1@v1 --> 14
c p4@v0 --> 1
c p3@v1 --> 8
c p4@v1 --> 2
c p4@v4 --> 5
c p4@v5 --> 6
c p4@v2 --> 3
c p3@v2 --> 9
c p2@v0 --> 10
c p2@v1 --> 11
c p1@v2 --> 15
c p2@v2 --> 12
c p4@v3 --> 4
c p3@v0 --> 7
c p1@v0 --> 13
p cnf 19 33
1 2 3 4 5 6 0
-1 -2 0
-1 -3 0
-1 -4 0
-1 -5 0
-1 -6 0
-2 -3 0
-2 -4 0
-2 -5 0
-2 -6 0
-3 -4 0
-3 -5 0
-3 -6 0
-4 -5 0
-4 -6 0
-5 -6 0
7 8 9 0
-7 -8 0
-7 -9 0
-8 -9 0
10 11 12 0
-10 -11 0
-10 -12 0
-11 -12 0
13 14 15 0
-13 -14 0
-13 -15 0
-14 -15 0
16 17 18 0
-16 -17 0
-16 -18 0
-17 -18 0
19 -19 0
